unknown
(model
; cardinality of BoundSet is 3
(declare-sort BoundSet 0)
; rep: @uc_BoundSet_0
; rep: @uc_BoundSet_1
; rep: @uc_BoundSet_2
; cardinality of UnboundSet is 1
(declare-sort UnboundSet 0)
(declare-fun groundTerm_4 () UnboundSet)
(define-fun IsIncreasedBy ((BOUND_VARIABLE_418 BoundSet) (BOUND_VARIABLE_419 BoundSet)) Bool true)
(define-fun IsInPastDecade ((BOUND_VARIABLE_422 BoundSet)) Bool true)
(define-fun IsLargestEmiter ((BOUND_VARIABLE_422 BoundSet)) Bool false)
)
sat
(model
; cardinality of BoundSet is 1
(declare-sort BoundSet 0)
; rep: @uc_BoundSet_0
; cardinality of UnboundSet is 1
(declare-sort UnboundSet 0)
(declare-fun groundTerm_7 () UnboundSet)
(define-fun IsIncreasedBy ((BOUND_VARIABLE_451 BoundSet) (BOUND_VARIABLE_452 BoundSet)) Bool true)
(define-fun IsInPastDecade ((BOUND_VARIABLE_455 BoundSet)) Bool true)
(define-fun IsLargestEmiter ((BOUND_VARIABLE_455 BoundSet)) Bool false)
)
